
Gurobi 6.5.0 (win64) logging started 02/14/17 18:15:02

Changed value of parameter Method to 2
   Prev: -1  Min: -1  Max: 4  Default: -1

Gurobi 6.5.0 (win64) logging started 02/14/17 18:16:48

Changed value of parameter Method to 2
   Prev: -1  Min: -1  Max: 4  Default: -1

Gurobi 6.5.0 (win64) logging started 02/14/17 18:33:06

Changed value of parameter Method to 2
   Prev: -1  Min: -1  Max: 4  Default: -1

Gurobi 6.5.0 (win64) logging started 02/14/17 18:34:11

Changed value of parameter Method to 2
   Prev: -1  Min: -1  Max: 4  Default: -1

Gurobi 6.5.0 (win64) logging started 02/14/17 18:34:38

Changed value of parameter Method to 2
   Prev: -1  Min: -1  Max: 4  Default: -1

Gurobi 6.5.0 (win64) logging started 02/14/17 18:34:43

Changed value of parameter Method to 2
   Prev: -1  Min: -1  Max: 4  Default: -1

Gurobi 6.5.0 (win64) logging started 02/14/17 18:35:49

Changed value of parameter Method to 2
   Prev: -1  Min: -1  Max: 4  Default: -1

Gurobi 6.5.0 (win64) logging started 02/14/17 18:36:23

Changed value of parameter Method to 2
   Prev: -1  Min: -1  Max: 4  Default: -1

Gurobi 6.5.0 (win64) logging started 02/14/17 18:36:55

Changed value of parameter Method to 2
   Prev: -1  Min: -1  Max: 4  Default: -1

Gurobi 6.5.0 (win64) logging started 02/14/17 18:37:29

Changed value of parameter Method to 2
   Prev: -1  Min: -1  Max: 4  Default: -1

Gurobi 6.5.0 (win64) logging started 02/14/17 18:38:01

Changed value of parameter Method to 2
   Prev: -1  Min: -1  Max: 4  Default: -1

Gurobi 6.5.0 (win64) logging started 02/23/17 16:43:35

Changed value of parameter Method to 2
   Prev: -1  Min: -1  Max: 4  Default: -1

Gurobi 6.5.0 (win64) logging started 02/23/17 16:55:52

Changed value of parameter Method to 2
   Prev: -1  Min: -1  Max: 4  Default: -1

Gurobi 6.5.0 (win64) logging started 02/23/17 17:03:51

Changed value of parameter Method to 2
   Prev: -1  Min: -1  Max: 4  Default: -1

Gurobi 6.5.0 (win64) logging started 02/23/17 17:04:12

Changed value of parameter Method to 2
   Prev: -1  Min: -1  Max: 4  Default: -1

Gurobi 6.5.0 (win64) logging started 02/23/17 17:05:30

Changed value of parameter Method to 2
   Prev: -1  Min: -1  Max: 4  Default: -1

Gurobi 6.5.0 (win64) logging started 02/23/17 17:06:16

Changed value of parameter Method to 2
   Prev: -1  Min: -1  Max: 4  Default: -1

Gurobi 6.5.0 (win64) logging started 02/23/17 17:36:57

Changed value of parameter Method to 2
   Prev: -1  Min: -1  Max: 4  Default: -1

Gurobi 6.5.0 (win64) logging started 02/23/17 17:37:28

Changed value of parameter Method to 2
   Prev: -1  Min: -1  Max: 4  Default: -1

Gurobi 6.5.0 (win64) logging started 02/23/17 17:37:59

Changed value of parameter Method to 2
   Prev: -1  Min: -1  Max: 4  Default: -1

Gurobi 6.5.0 (win64) logging started 02/23/17 17:38:54

Changed value of parameter Method to 2
   Prev: -1  Min: -1  Max: 4  Default: -1

Gurobi 6.5.0 (win64) logging started 02/23/17 17:45:10

Changed value of parameter Method to 2
   Prev: -1  Min: -1  Max: 4  Default: -1

Gurobi 6.5.0 (win64) logging started 02/23/17 17:46:28

Changed value of parameter Method to 2
   Prev: -1  Min: -1  Max: 4  Default: -1

Gurobi 6.5.0 (win64) logging started 02/23/17 17:53:02

Changed value of parameter Method to 1
   Prev: -1  Min: -1  Max: 4  Default: -1

Gurobi 6.5.0 (win64) logging started 02/23/17 18:01:34

Changed value of parameter Method to 1
   Prev: -1  Min: -1  Max: 4  Default: -1

Gurobi 6.5.0 (win64) logging started 02/23/17 21:09:35

Changed value of parameter Method to 2
   Prev: -1  Min: -1  Max: 4  Default: -1

Gurobi 6.5.0 (win64) logging started 02/23/17 21:09:57

Changed value of parameter Method to 1
   Prev: -1  Min: -1  Max: 4  Default: -1

Gurobi 6.5.0 (win64) logging started 02/23/17 21:10:08

Changed value of parameter Method to 1
   Prev: -1  Min: -1  Max: 4  Default: -1

Gurobi 6.5.0 (win64) logging started 02/23/17 21:15:03

Changed value of parameter Method to 1
   Prev: -1  Min: -1  Max: 4  Default: -1

Gurobi 6.5.0 (win64) logging started 02/23/17 21:17:41

Changed value of parameter Method to 2
   Prev: -1  Min: -1  Max: 4  Default: -1

Gurobi 6.5.0 (win64) logging started 02/23/17 21:20:42

Changed value of parameter Method to 2
   Prev: -1  Min: -1  Max: 4  Default: -1
